<number of tasks>
11
<cycle time>
9
<order strength>
0.000
<task times>
1 6
2 2
3 5
4 7
5 1
6 2
7 3
8 6
9 5
10 5
11 4
<precedence relations>
1,2
1,3
1,4
1,5
2,6
3,7
4,7
5,7
6,8
7,9
8,10
9,11
10,11
<end>